# Objective value = 3.0537476600928812e+02
x[0] 0
x[1] 1
x[2] 0
x[3] 1
x[4] 0
x[5] 1
x[6] 0
x[7] 1
x[8] 0
x[9] 0
x[10] 0
x[11] 1
x[12] 0
x[13] 0
x[14] 0
x[15] 1
x[16] 1
x[17] 1
x[18] 1
x[19] 0
x[20] 1
x[21] 0
x[22] 1
x[23] 0
x[24] 1
x[25] 0
x[26] 0
x[27] 0
x[28] 1
x[29] 0
x[30] 0
x[31] 0
x[32] 1
x[33] 0
x[34] 1
x[35] 0
x[36] 1
x[37] 1
x[38] 1
x[39] 0
x[40] 1
x[41] 0
x[42] 1
x[43] 1
x[44] 1
x[45] 0
x[46] 1
x[47] 1
x[48] 0
x[49] 1
x[50] 1
x[51] 0
x[52] 1
x[53] 0
x[54] 0
x[55] 1
x[56] 1
x[57] 0
x[58] 0
x[59] 1
x[60] 0
x[61] 1
x[62] 0
x[63] 0
x[64] 0
x[65] 0
x[66] 1
x[67] 0
x[68] 0
x[69] 0
x[70] 1
x[71] 1
x[72] 0
x[73] 1
x[74] 0
x[75] 0
x[76] 0
x[77] 0
x[78] 1
x[79] 0
x[80] 0
x[81] 0
x[82] 0
x[83] 0
x[84] 0
x[85] 1
x[86] 0
x[87] 1
x[88] 1
x[89] 0
x[90] 0
x[91] 0
x[92] 0
x[93] 1
x[94] 1
x[95] 1
x[96] 0
x[97] 0
x[98] 0
x[99] 1
x[100] 0
x[101] 1
x[102] 0
x[103] 1
x[104] 1
x[105] 1
x[106] 0
x[107] 0
x[108] 1
x[109] 1
x[110] 1
x[111] 1
x[112] 1
x[113] 1
x[114] 0
x[115] 0
x[116] 0
x[117] 1
x[118] 0
x[119] 0
x[120] 0
x[121] 0
x[122] 1
x[123] 1
x[124] 0
x[125] 0
x[126] 0
x[127] 1
x[128] 0
x[129] 1
x[130] 0
x[131] 1
x[132] 0
x[133] 1
x[134] 0
x[135] 0
x[136] 1
x[137] 0
x[138] 0
x[139] 0
x[140] 1
x[141] 1
x[142] 0
x[143] 0
x[144] 0
x[145] 1
x[146] 1
x[147] 1
x[148] 0
x[149] 0
x[150] 0
x[151] 1
x[152] 1
x[153] 0
x[154] 1
x[155] 0
x[156] 1
x[157] 1
x[158] 1
x[159] 1
x[160] 0
x[161] 1
x[162] 1
x[163] 1
x[164] 0
x[165] 0
x[166] 0
x[167] 0
x[168] 1
x[169] 1
x[170] 0
x[171] 0
x[172] 0
x[173] 1
x[174] 0
x[175] 1
x[176] 0
x[177] 1
x[178] 0
x[179] 1
x[180] 1
x[181] 1
x[182] 1
x[183] 1
x[184] 0
x[185] 0
x[186] 1
x[187] 1
x[188] 1
x[189] 0
x[190] 1
x[191] 1
x[192] 1
x[193] 1
x[194] 0
x[195] 0
x[196] 0
x[197] 1
x[198] 0
x[199] 1
x[200] 1
x[201] 0
x[202] 0
x[203] 1
x[204] 0
x[205] 1
x[206] 1
x[207] 1
x[208] 1
x[209] 1
x[210] 0
x[211] 0
x[212] 1
x[213] 1
x[214] 1
x[215] 1
x[216] 0
x[217] 0
x[218] 1
x[219] 0
x[220] 0
x[221] 1
x[222] 1
x[223] 0
x[224] 0
x[225] 0
x[226] 0
x[227] 0
x[228] 1
x[229] 0
x[230] 1
x[231] 1
x[232] 1
x[233] 0
x[234] 1
x[235] 1
x[236] 0
x[237] 1
x[238] 0
x[239] 1
x[240] 1
x[241] 1
x[242] 0
x[243] 1
x[244] 0
x[245] 0
x[246] 0
x[247] 1
x[248] 1
x[249] 0
x[250] 1
x[251] 1
x[252] 0
x[253] 0
x[254] 0
x[255] 0
x[256] 0
x[257] 0
x[258] 1
x[259] 0
x[260] 0
x[261] 1
x[262] 1
x[263] 1
x[264] 1
x[265] 1
x[266] 1
x[267] 1
x[268] 0
x[269] 0
x[270] 0
x[271] 0
x[272] 1
x[273] 1
x[274] 1
x[275] 0
x[276] 0
x[277] 1
x[278] 1
x[279] 0
x[280] 0
x[281] 0
x[282] 1
x[283] 0
x[284] 0
x[285] 0
x[286] 0
x[287] 0
x[288] 1
x[289] 1
x[290] 0
x[291] 1
x[292] 1
x[293] 0
x[294] 1
x[295] 1
x[296] 1
x[297] 0
x[298] 1
x[299] 0
x[300] 0
x[301] 1
x[302] 0
x[303] 1
x[304] 0
x[305] 0
x[306] 0
x[307] 1
x[308] 0
x[309] 1
x[310] 0
x[311] 0
x[312] 0
x[313] 0
x[314] 0
x[315] 0
x[316] 0
x[317] 0
x[318] 0
x[319] 1
x[320] 0
x[321] 0
x[322] 1
x[323] 1
x[324] 1
x[325] 0
x[326] 0
x[327] 1
x[328] 0
x[329] 1
x[330] 1
x[331] 0
x[332] 0
x[333] 1
x[334] 1
x[335] 0
x[336] 1
x[337] 1
x[338] 1
x[339] 0
x[340] 0
x[341] 0
x[342] 0
x[343] 0
x[344] 0
x[345] 1
x[346] 1
x[347] 0
x[348] 0
x[349] 1
x[350] 0
x[351] 1
x[352] 0
x[353] 1
x[354] 0
x[355] 1
x[356] 1
x[357] 0
x[358] 1
x[359] 1
x[360] 1
x[361] 0
x[362] 1
x[363] 1
x[364] 1
x[365] 1
x[366] 0
x[367] 1
x[368] 1
x[369] 1
x[370] 0
x[371] 0
x[372] 1
x[373] 1
x[374] 0
x[375] 1
x[376] 1
x[377] 1
x[378] 0
x[379] 1
x[380] 1
x[381] 1
x[382] 1
x[383] 1
x[384] 0
x[385] 0
x[386] 1
x[387] 0
x[388] 0
x[389] 1
x[390] 0
x[391] 1
x[392] 1
x[393] 1
x[394] 0
x[395] 0
x[396] 0
x[397] 0
x[398] 0
x[399] 0
x[400] 0
x[401] 0
x[402] 1
x[403] 1
x[404] 0
x[405] 1
x[406] 1
x[407] 0
x[408] 0
x[409] 1
x[410] 1
x[411] 1
x[412] 1
x[413] 1
x[414] 0
x[415] 1
x[416] 1
x[417] 1
x[418] 1
x[419] 1
x[420] 1
x[421] 1
x[422] 1
x[423] 1
x[424] 1
x[425] 1
x[426] 0
x[427] 1
x[428] 0
x[429] 1
x[430] 0
x[431] 1
x[432] 1
x[433] 0
x[434] 1
x[435] 1
x[436] 0
x[437] 1
x[438] 0
x[439] 0
x[440] 1
x[441] 0
x[442] 0
x[443] 0
x[444] 0
x[445] 0
x[446] 1
x[447] 1
x[448] 1
x[449] 1
x[450] 0
x[451] 1
x[452] 0
x[453] 0
x[454] 0
x[455] 0
x[456] 1
x[457] 0
x[458] 1
x[459] 1
x[460] 1
x[461] 0
x[462] 0
x[463] 1
x[464] 1
x[465] 0
x[466] 0
x[467] 0
x[468] 1
x[469] 1
x[470] 1
x[471] 0
x[472] 1
x[473] 1
x[474] 0
x[475] 0
x[476] 1
x[477] 0
x[478] 1
x[479] 0
x[480] 0
x[481] 0
x[482] 0
x[483] 1
x[484] 0
x[485] 1
x[486] 0
x[487] 1
x[488] 1
x[489] 0
x[490] 1
x[491] 0
x[492] 1
x[493] 0
x[494] 0
x[495] 0
x[496] 0
x[497] 0
x[498] 0
x[499] 0
x[500] 1
x[501] 0
x[502] 0
x[503] 1
x[504] 0
x[505] 0
x[506] 1
x[507] 1
x[508] 0
x[509] 0
x[510] 1
x[511] 1
x[512] 0
x[513] 1
x[514] 0
x[515] 0
x[516] 0
x[517] 0
x[518] 1
x[519] 0
x[520] 0
x[521] 0
x[522] 0
x[523] 0
x[524] 1
x[525] 0
x[526] 1
x[527] 0
x[528] 0
x[529] 0
x[530] 1
x[531] 0
x[532] 1
x[533] 0
x[534] 0
x[535] 1
x[536] 0
x[537] 0
x[538] 1
x[539] 0
x[540] 1
x[541] 1
x[542] 1
x[543] 0
x[544] 0
x[545] 1
x[546] 1
x[547] 1
x[548] 0
x[549] 0
x[550] 0
x[551] 0
x[552] 0
x[553] 1
x[554] 1
x[555] 1
x[556] 0
x[557] 0
x[558] 0
x[559] 1
x[560] 0
x[561] 0
x[562] 0
x[563] 1
x[564] 0
x[565] 0
x[566] 1
x[567] 0
x[568] 0
x[569] 1
x[570] 0
x[571] 0
x[572] 0
x[573] 0
x[574] 0
x[575] 1
x[576] 1
x[577] 0
x[578] 0
x[579] 0
x[580] 0
x[581] 0
x[582] 0
x[583] 1
x[584] 1
x[585] 0
x[586] 1
x[587] 1
x[588] 0
x[589] 1
x[590] 0
x[591] 1
x[592] 0
x[593] 0
x[594] 0
x[595] 1
x[596] 0
x[597] 1
x[598] 0
x[599] 0
x[600] 1
x[601] 0
x[602] 0
x[603] 1
x[604] 0
x[605] 0
x[606] 0
x[607] 1
x[608] 0
x[609] 1
x[610] 1
x[611] 0
x[612] 0
x[613] 1
x[614] 1
x[615] 1
x[616] 1
x[617] 0
x[618] 0
x[619] 1
x[620] 1
x[621] 1
x[622] 1
x[623] 0
x[624] 0
x[625] 1
x[626] 0
x[627] 0
x[628] 1
x[629] 1
x[630] 1
x[631] 1
x[632] 1
x[633] 0
x[634] 1
x[635] 0
x[636] 1
x[637] 1
x[638] 1
x[639] 0
x[640] 1
x[641] 1
x[642] 1
x[643] 0
x[644] 0
x[645] 0
x[646] 1
x[647] 1
x[648] 0
x[649] 0
x[650] 0
x[651] 1
x[652] 1
x[653] 0
x[654] 1
x[655] 0
x[656] 1
x[657] 0
x[658] 0
x[659] 0
x[660] 0
x[661] 0
x[662] 0
x[663] 0
x[664] 0
x[665] 1
x[666] 1
x[667] 0
x[668] 0
x[669] 0
x[670] 1
x[671] 1
x[672] 0
x[673] 1
x[674] 1
x[675] 1
x[676] 1
x[677] 1
x[678] 0
x[679] 0
x[680] 1
x[681] 0
x[682] 0
x[683] 1
x[684] 1
x[685] 1
x[686] 0
x[687] 1
x[688] 0
x[689] 1
x[690] 0
x[691] 1
x[692] 1
x[693] 1
x[694] 0
x[695] 0
x[696] 0
x[697] 0
x[698] 0
x[699] 0
x[700] 1
x[701] 1
x[702] 0
x[703] 0
x[704] 0
x[705] 0
x[706] 1
x[707] 1
x[708] 0
x[709] 1
x[710] 1
x[711] 1
x[712] 1
x[713] 0
x[714] 0
x[715] 1
x[716] 1
x[717] 1
x[718] 1
x[719] 1
x[720] 0
x[721] 0
x[722] 0
x[723] 1
x[724] 0
x[725] 1
x[726] 1
x[727] 0
x[728] 0
x[729] 0
x[730] 0
x[731] 1
x[732] 1
x[733] 1
x[734] 1
x[735] 0
x[736] 0
x[737] 0
x[738] 1
x[739] 1
x[740] 1
x[741] 0
x[742] 1
x[743] 0
x[744] 0
x[745] 1
x[746] 0
x[747] 1
x[748] 1
x[749] 1
x[750] 1
x[751] 1
x[752] 0
x[753] 0
x[754] 0
x[755] 1
x[756] 0
x[757] 0
x[758] 0
x[759] 1
x[760] 0
x[761] 1
x[762] 0
x[763] 0
x[764] 1
x[765] 0
x[766] 0
x[767] 1
x[768] 0
x[769] 0
x[770] 0
x[771] 0
x[772] 1
x[773] 0
x[774] 0
x[775] 0
x[776] 1
x[777] 0
x[778] 0
x[779] 0
x[780] 1
x[781] 1
x[782] 1
x[783] 1
x[784] 1
x[785] 0
x[786] 1
x[787] 1
x[788] 1
x[789] 0
x[790] 1
x[791] 1
x[792] 1
x[793] 0
x[794] 0
x[795] 1
x[796] 0
x[797] 0
x[798] 0
x[799] 0
x[800] 1
x[801] 1
x[802] 1
x[803] 0
x[804] 1
x[805] 1
x[806] 0
x[807] 1
x[808] 1
x[809] 1
x[810] 0
x[811] 1
x[812] 0
x[813] 1
x[814] 0
x[815] 0
x[816] 0
x[817] 1
x[818] 0
x[819] 0
x[820] 1
x[821] 0
x[822] 1
x[823] 0
x[824] 0
x[825] 1
x[826] 1
x[827] 0
x[828] 0
x[829] 0
x[830] 0
x[831] 0
x[832] 0
x[833] 0
x[834] 1
x[835] 0
x[836] 1
x[837] 1
x[838] 0
x[839] 1
x[840] 0
x[841] 0
x[842] 0
x[843] 1
x[844] 1
x[845] 1
x[846] 1
x[847] 1
x[848] 0
x[849] 1
x[850] 0
x[851] 0
x[852] 0
x[853] 1
x[854] 0
x[855] 1
x[856] 0
x[857] 1
x[858] 0
x[859] 0
x[860] 0
x[861] 0
x[862] 1
x[863] 1
x[864] 1
x[865] 0
x[866] 0
x[867] 1
x[868] 0
x[869] 0
x[870] 0
x[871] 0
x[872] 1
x[873] 1
x[874] 0
x[875] 0
x[876] 0
x[877] 1
x[878] 0
x[879] 0
x[880] 1
x[881] 1
x[882] 0
x[883] 1
x[884] 0
x[885] 1
x[886] 1
x[887] 0
x[888] 1
x[889] 0
x[890] 1
x[891] 0
x[892] 1
x[893] 1
x[894] 0
x[895] 0
x[896] 0
x[897] 1
x[898] 0
x[899] 0
x[900] 0
x[901] 0
x[902] 0
x[903] 0
x[904] 1
x[905] 0
x[906] 1
x[907] 1
x[908] 1
x[909] 1
x[910] 0
x[911] 0
x[912] 1
x[913] 0
x[914] 1
x[915] 1
x[916] 1
x[917] 1
x[918] 0
x[919] 1
x[920] 1
x[921] 0
x[922] 0
x[923] 0
x[924] 1
x[925] 1
x[926] 1
x[927] 1
x[928] 1
x[929] 1
x[930] 1
x[931] 1
x[932] 1
x[933] 1
x[934] 1
x[935] 1
x[936] 1
x[937] 0
x[938] 1
x[939] 1
x[940] 1
x[941] 1
x[942] 1
x[943] 1
x[944] 0
x[945] 1
x[946] 1
x[947] 1
x[948] 1
x[949] 0
x[950] 0
x[951] 0
x[952] 0
x[953] 0
x[954] 1
x[955] 0
x[956] 1
x[957] 1
x[958] 0
x[959] 0
x[960] 1
x[961] 1
x[962] 0
x[963] 1
x[964] 0
x[965] 0
x[966] 1
x[967] 1
x[968] 1
x[969] 0
x[970] 0
x[971] 1
x[972] 1
x[973] 1
x[974] 1
x[975] 0
x[976] 0
x[977] 0
x[978] 1
x[979] 0
x[980] 0
x[981] 1
x[982] 1
x[983] 0
x[984] 1
x[985] 0
x[986] 1
x[987] 0
x[988] 1
x[989] 1
x[990] 0
x[991] 1
x[992] 1
x[993] 0
x[994] 1
x[995] 1
x[996] 0
x[997] 1
x[998] 1
x[999] 0
